
<<< setup


<<< generate

Version identifier: 12.10.0.0 | 2019-11-26 | 843d4de2ae
CPXPARAM_TimeLimit                               1200
Tried aggregator 2 times.
MIP Presolve eliminated 5183010 rows and 2950281 columns.
MIP Presolve modified 417256 coefficients.
Aggregator did 1374 substitutions.
Reduced MIP has 66266 rows, 67395 columns, and 410850 nonzeros.
Reduced MIP has 67345 binaries, 0 generals, 0 SOSs, and 0 indicators.
Presolve time = 5.95 sec. (3760.67 ticks)
Found incumbent of value 0.000000 after 9.50 sec. (4839.00 ticks)
Probing fixed 1421 vars, tightened 0 bounds.
Probing time = 6.75 sec. (1322.94 ticks)
Cover probing fixed 2 vars, tightened 0 bounds.
Tried aggregator 2 times.
Detecting symmetries...
MIP Presolve eliminated 1300 rows and 1425 columns.
Aggregator did 2 substitutions.
Reduced MIP has 64964 rows, 65968 columns, and 402234 nonzeros.
Reduced MIP has 65918 binaries, 0 generals, 0 SOSs, and 0 indicators.
Presolve time = 0.64 sec. (389.85 ticks)
Probing fixed 77 vars, tightened 0 bounds.
Probing time = 2.30 sec. (426.16 ticks)
Clique table members: 229011.
MIP emphasis: balance optimality and feasibility.
MIP search method: dynamic search.
Parallel mode: deterministic, using up to 4 threads.
Root relaxation solution time = 3.27 sec. (2245.75 ticks)

        Nodes                                         Cuts/
   Node  Left     Objective  IInf  Best Integer    Best Bound    ItCnt     Gap

*     0+    0                            0.0000   135901.0000              --- 
      0     0   135901.0000   982        0.0000   135901.0000    11864     --- 
      0     0   135901.0000   982        0.0000      Cuts: 65    24746     --- 
      0     0   135901.0000   982        0.0000     Cuts: 286    36676     --- 
      0     0   135901.0000   982        0.0000    Cuts: 9452    58748     --- 
*     0+    0                         7084.0000   135901.0000              --- 
      0     0        cutoff           7084.0000   135901.0000    58748     --- 
Heuristic still looking.
Heuristic still looking.
      0     2   135901.0000   726     7084.0000   135901.0000    83542     --- 
Elapsed time = 421.84 sec. (256817.97 ticks, tree = 0.02 MB, solutions = 2)
      1     3   135901.0000   818     7084.0000   135901.0000   102785     --- 
      2     3   135901.0000   805     7084.0000   135901.0000   111248     --- 
      3     4   135901.0000   947     7084.0000   135901.0000   122779     --- 
      4     5   135901.0000   841     7084.0000   135901.0000   149256     --- 
      6     4   135901.0000   811     7084.0000   135901.0000   119663     --- 
      7     6   135901.0000   847     7084.0000   135901.0000   163393     --- 
*     8+    3                        11203.0000   135901.0000              --- 
      8     9   135901.0000   984    11203.0000   135901.0000   202419     --- 
      9    10   135901.0000  1068    11203.0000   135901.0000   211145     --- 
     10    11   135901.0000   950    11203.0000   135901.0000   211892     --- 
     13     8   135901.0000   783    11203.0000   135901.0000   198632     --- 
Elapsed time = 532.31 sec. (304013.71 ticks, tree = 0.04 MB, solutions = 2)
     14    10   135901.0000   832    11203.0000   135901.0000   217368     --- 
     17     6   135901.0000   806    11203.0000   135901.0000   181811     --- 
     20    13   135901.0000   873    11203.0000   135901.0000   221227     --- 
     24    15   135901.0000   922    11203.0000   135901.0000   227503     --- 
     25    14   135901.0000  1078    11203.0000   135901.0000   221139     --- 
     28    16   135901.0000  1085    11203.0000   135901.0000   230993     --- 
     31    18   135901.0000  1017    11203.0000   135901.0000   238521     --- 
     35    19   135901.0000   994    11203.0000   135901.0000   255306     --- 
     43    22   135901.0000   989    11203.0000   135901.0000   258381     --- 
     45    19   135901.0000   884    11203.0000   135901.0000   238893     --- 
Elapsed time = 577.67 sec. (324199.89 ticks, tree = 0.39 MB, solutions = 2)
     48    28   135901.0000   991    11203.0000   135901.0000   284098     --- 
     52    38   135901.0000   983    11203.0000   135901.0000   295277     --- 
     57    40   135901.0000  1091    11203.0000   135901.0000   301296     --- 
     59    32   135901.0000  1002    11203.0000   135901.0000   301195     --- 
     64    43   135901.0000  1029    11203.0000   135901.0000   307276     --- 
     68    40   135901.0000   949    11203.0000   135901.0000   325559     --- 
     72    44   135901.0000   976    11203.0000   135901.0000   333121     --- 
     76    46   135901.0000   972    11203.0000   135901.0000   340851     --- 
     80     5   135901.0000   877    11203.0000   135901.0000   149052     --- 
     83    57   135901.0000   996    11203.0000   135901.0000   377579     --- 
Elapsed time = 613.88 sec. (338309.70 ticks, tree = 1.63 MB, solutions = 3)
     88    60   135901.0000   988    11203.0000   135901.0000   404468     --- 
     94    61   135901.0000   981    11203.0000   135901.0000   389986     --- 
     98    57   135901.0000  1095    11203.0000   135901.0000   417332     --- 
    107    58   135901.0000   994    11203.0000   135901.0000   420418     --- 
    112    65   135901.0000   956    11203.0000   135901.0000   403418     --- 
    117    67   135901.0000   999    11203.0000   135901.0000   428094     --- 
    123    69   135901.0000  1005    11203.0000   135901.0000   433136     --- 
    128    73   135901.0000   973    11203.0000   135901.0000   449475     --- 
    133    87   135901.0000   905    11203.0000   135901.0000   511367     --- 
    139    77   135901.0000   894    11203.0000   135901.0000   483991     --- 
Elapsed time = 645.17 sec. (351974.75 ticks, tree = 1.89 MB, solutions = 3)
    140    78   135901.0000   870    11203.0000   135901.0000   484991     --- 
    145    79   135901.0000  1025    11203.0000   135901.0000   491903     --- 
    153    94   135901.0000   853    11203.0000   135901.0000   536137     --- 
    157    95   135901.0000   884    11203.0000   135901.0000   536825     --- 
    161    97   135901.0000   942    11203.0000   135901.0000   538957     --- 
    165    99   135901.0000   983    11203.0000   135901.0000   543657     --- 
    167    98   135901.0000  1081    11203.0000   135901.0000   550396     --- 
    170   100   135901.0000   789    11203.0000   135901.0000   552075     --- 
    179    45   135901.0000   955    11203.0000   135901.0000   309029     --- 
    182   113   135901.0000   939    11203.0000   135901.0000   575776     --- 
Elapsed time = 678.39 sec. (368519.26 ticks, tree = 2.50 MB, solutions = 3)
    184   104   135901.0000   925    11203.0000   135901.0000   565846     --- 
    188   114   135901.0000  1057    11203.0000   135901.0000   585908     --- 
    192   114   135901.0000  1232    11203.0000   135901.0000   584410     --- 
    194   116   135901.0000   937    11203.0000   135901.0000   586076     --- 
    198   117   135901.0000  1062    11203.0000   135901.0000   583969     --- 
    200   119   135901.0000   951    11203.0000   135901.0000   584713     --- 
    202   120   135901.0000   951    11203.0000   135901.0000   585454     --- 
    203   122    infeasible          11203.0000   135901.0000   610799     --- 
    204   117   135901.0000   971    11203.0000   135901.0000   610992     --- 
    205   117   135901.0000   951    11203.0000   135901.0000   599629     --- 
Elapsed time = 778.19 sec. (392736.70 ticks, tree = 2.63 MB, solutions = 3)
    206   144   135901.0000  1052    11203.0000   135901.0000   697614     --- 
    210   137   135901.0000   986    11203.0000   135901.0000   650964     --- 
    215   146   135901.0000  1058    11203.0000   135901.0000   700840     --- 
    219   146   135901.0000   945    11203.0000   135901.0000   715270     --- 
    220   147   135901.0000  1134    11203.0000   135901.0000   702857     --- 
    222   149   135901.0000   975    11203.0000   135901.0000   703526     --- 
    228   150   135901.0000   986    11203.0000   135901.0000   704461     --- 
    233   149   135901.0000   895    11203.0000   135901.0000   720316     --- 
    241   135   135901.0000   872    11203.0000   135901.0000   666241     --- 
    247   152   135901.0000   977    11203.0000   135901.0000   725106     --- 
Elapsed time = 826.61 sec. (410884.76 ticks, tree = 3.55 MB, solutions = 3)
    251   154   135901.0000   959    11203.0000   135901.0000   725923     --- 
    252   150   135901.0000   861    11203.0000   135901.0000   768292     --- 
    261   151   135901.0000  1130    11203.0000   135901.0000   776304     --- 
    265   162   135901.0000   922    11203.0000   135901.0000   777763     --- 
    267   151   135901.0000   881    11203.0000   135901.0000   751271     --- 
    276   155   135901.0000   886    11203.0000   135901.0000   756069     --- 
    282   156   135901.0000   863    11203.0000   135901.0000   757464     --- 
    283   157   135901.0000   914    11203.0000   135901.0000   759556     --- 
    287   171   135901.0000  1006    11203.0000   135901.0000   798618     --- 
    289   150   135901.0000   856    11203.0000   135901.0000   782120     --- 
Elapsed time = 851.94 sec. (425106.18 ticks, tree = 2.89 MB, solutions = 3)
    293   173   135901.0000  1130    11203.0000   135901.0000   806045     --- 
    303   177   135901.0000  1037    11203.0000   135901.0000   854542     --- 
    305   177   135901.0000  1068    11203.0000   135901.0000   857575     --- 
    310   177   135901.0000   813    11203.0000   135901.0000   830442     --- 
    312   178   135901.0000   761    11203.0000   135901.0000   831000     --- 
    318   194   135901.0000   875    11203.0000   135901.0000   903343     --- 
    321   188   135901.0000   834    11203.0000   135901.0000   878765     --- 
    326   195   135901.0000   816    11203.0000   135901.0000   904764     --- 
    328   181   135901.0000   780    11203.0000   135901.0000   834693     --- 
    333   191   135901.0000   946    11203.0000   135901.0000   883866     --- 
Elapsed time = 883.50 sec. (439553.67 ticks, tree = 7.07 MB, solutions = 3)
    341   197   135901.0000   838    11203.0000   135901.0000   908204     --- 
    348   199   135901.0000   759    11203.0000   135901.0000   927466     --- 
    364   199   135901.0000   805    11203.0000   135901.0000   909406     --- 
    366   195   135901.0000  1010    11203.0000   135901.0000   892332     --- 
    372   205   135901.0000   782    11203.0000   135901.0000   930239     --- 
    380   208   135901.0000   714    11203.0000   135901.0000   931432     --- 
    382   213   135901.0000   919    11203.0000   135901.0000   972418     --- 
    386   215   135901.0000   866    11203.0000   135901.0000   973289     --- 
    397   218    infeasible          11203.0000   135901.0000   982897     --- 
    406   198   135901.0000   950    11203.0000   135901.0000   950989     --- 
Elapsed time = 921.80 sec. (456335.75 ticks, tree = 7.70 MB, solutions = 3)
    417   220   135901.0000   757    11203.0000   135901.0000   980426     --- 
    448   222   135901.0000   749    11203.0000   135901.0000   983239     --- 
    465   242   135901.0000   726    11203.0000   135901.0000  1009911     --- 
    496   259   135901.0000   757    11203.0000   135901.0000  1036304     --- 
    519   252   135901.0000   724    11203.0000   135901.0000  1032973     --- 
    524   256   135901.0000   711    11203.0000   135901.0000  1035709     --- 
    526   255    infeasible          11203.0000   135901.0000  1040142     --- 
    539   263   135901.0000   880    11203.0000   135901.0000  1044727     --- 
    549   264   135901.0000   884    11203.0000   135901.0000  1048747     --- 
    578   281    infeasible          11203.0000   135901.0000  1068069     --- 
Elapsed time = 1007.31 sec. (496176.88 ticks, tree = 13.78 MB, solutions = 3)
    587   293   135901.0000   663    11203.0000   135901.0000  1104308     --- 
    620   285   135901.0000   690    11203.0000   135901.0000  1089992     --- 
    635   294   135901.0000   798    11203.0000   135901.0000  1120286     --- 
    663   297    infeasible          11203.0000   135901.0000  1139113     --- 
    681   298   135901.0000   660    11203.0000   135901.0000  1142380     --- 
    704   297    infeasible          11203.0000   135901.0000  1169051     --- 
    724   299    infeasible          11203.0000   135901.0000  1151410     --- 
    740   301   135901.0000   589    11203.0000   135901.0000  1175721     --- 
    757   299   135901.0000   646    11203.0000   135901.0000  1180238     --- 
    767   302   135901.0000   656    11203.0000   135901.0000  1182180     --- 
Elapsed time = 1101.75 sec. (538285.34 ticks, tree = 15.34 MB, solutions = 3)
    795   295    infeasible          11203.0000   135901.0000  1167782     --- 
    824   301   135901.0000   656    11203.0000   135901.0000  1214067     --- 
Starting limited solution polishing.
    851   300    infeasible          11203.0000   135901.0000  1216847     --- 
    869   314   135901.0000   530    11203.0000   135901.0000  1226499     --- 
    880   307    infeasible          11203.0000   135901.0000  1234552     --- 
    892   304   135901.0000   705    11203.0000   135901.0000  1238371     --- 
    913   329   135901.0000   624    11203.0000   135901.0000  1244857     --- 
    938   341   135901.0000   591    11203.0000   135901.0000  1245730     --- 
    958   318    infeasible          11203.0000   135901.0000  1253937     --- 

Clique cuts applied:  11
Implied bound cuts applied:  1107
Flow cuts applied:  52
Mixed integer rounding cuts applied:  28

Root node processing (before b&c):
  Real time             =  390.44 sec. (234042.79 ticks)
Parallel b&c, 4 threads:
  Real time             =  810.16 sec. (346138.64 ticks)
  Sync time (average)   =  137.80 sec.
  Wait time (average)   =    0.00 sec.
                          ------------
Total (root+branch&cut) = 1200.59 sec. (580181.42 ticks)

<<< solve


OBJECTIVE: 11203

<<< post process


<<< done

